50
8720

741 602
719 917
360 779
814 870
166 752
648 717
400 199
239 873
66 582
753 474
621 84
626 519
431 615
421 852
237 86
468 535
463 204
4 777
250 579
654 562
721 429
958 48
953 942
183 859
385 543
890 767
953 326
505 810
227 84
268 600
918 292
244 32
220 759
542 89
298 834
407 197
358 884
683 410
27 562
301 70
679 564
969 486
885 100
549 462
785 18
5 490
22 934
514 27
417 665
34 794
